Normalized Data/p03_25_normalized_splitx10_0.vrp
NAME:p03_25_NORMALIZED_splitx10_
BEST_KNOWN: 0
COMMENT: 0
DIMENSION: 383
CAPACITY: 1000
EDGE_WEIGHT_FORMAT: FUNCTION
EDGE_WEIGHT_TYPE: EXACT_2D
NODE_COORD_SECTION
1 0.00000 0.00000
2 -44 24
3 -44 24
4 -44 24
5 -44 24
6 -44 24
7 -44 24
8 -18 18
9 -18 18
10 -18 18
11 -18 18
12 35 -29
13 35 -29
14 35 -29
15 35 25
16 35 25
17 35 25
18 35 25
19 -16 -47
20 -16 -47
21 -16 -47
22 -15 42
23 -15 42
24 -15 42
25 -15 42
26 -15 42
27 -4 -11
28 -4 -11
29 -4 -11
30 -4 -11
31 1 42
32 1 42
33 1 42
34 1 42
35 1 42
36 -37 -20
37 -37 -20
38 -37 -20
39 -37 -20
40 -37 40
41 -37 40
42 -9 26
43 -9 26
44 -9 26
45 -9 26
46 -9 26
47 -9 26
48 -46 -48
49 -46 -48
50 -46 -48
51 -46 -48
52 -48 -5
53 -48 -5
54 -48 -5
55 3 44
56 3 44
57 3 44
58 3 44
59 3 44
60 3 44
61 35 -30
62 35 -30
63 35 -30
64 35 -30
65 -50 -8
66 -50 -8
67 -50 -8
68 -50 -8
69 -50 -8
70 -32 11
71 -32 11
72 -32 11
73 -32 11
74 -32 11
75 -32 11
76 -26 6
77 -26 6
78 -26 6
79 -28 -50
80 -1 49
81 -1 49
82 -1 49
83 -1 49
84 -16 35
85 -16 35
86 -16 35
87 4 -9
88 4 -9
89 4 -9
90 4 -9
91 4 -9
92 25 19
93 25 19
94 25 19
95 25 19
96 -9 -41
97 -9 -41
98 -9 -41
99 -9 -41
100 -9 -41
101 -9 45
102 -9 45
103 -9 45
104 -9 45
105 -36 29
106 -36 29
107 -36 29
108 -36 29
109 -36 29
110 -36 29
111 -7 -10
112 -7 -10
113 -27 -21
114 -27 -21
115 -27 -21
116 -27 -21
117 -27 -21
118 -8 -35
119 -8 -35
120 -8 -35
121 -16 -43
122 -16 -43
123 -34 0
124 -34 0
125 38 31
126 38 31
127 38 31
128 38 31
129 38 31
130 38 31
131 -45 3
132 -45 3
133 -45 3
134 -45 3
135 -45 3
136 46 -2
137 46 -2
138 -12 -19
139 -12 -19
140 -12 -19
141 -47 50
142 -47 50
143 -47 50
144 -47 50
145 -8 42
146 -8 42
147 -8 42
148 -8 42
149 -8 42
150 -29 -3
151 -29 -3
152 -29 -3
153 -29 -3
154 -8 -47
155 -8 -47
156 -22 -27
157 -22 -27
158 -22 -27
159 -22 -27
160 4 -15
161 4 -15
162 4 -15
163 -29 -34
164 -1 -43
165 -1 -43
166 -1 -43
167 -1 -43
168 -1 -43
169 -1 -43
170 -5 13
171 -5 13
172 -5 13
173 -5 13
174 47 -33
175 47 -33
176 42 47
177 42 47
178 -1 -48
179 -1 -48
180 -1 -48
181 -1 -48
182 -1 -48
183 -1 -48
184 -18 -50
185 -18 -50
186 -18 -50
187 -18 -50
188 -18 -50
189 -18 -50
190 -49 20
191 -49 20
192 -27 29
193 -27 29
194 -27 29
195 -27 29
196 25 -47
197 25 -47
198 25 -47
199 -44 -18
200 -14 -42
201 -14 -42
202 -14 -42
203 -14 -42
204 -49 -6
205 -49 -6
206 -7 9
207 32 -19
208 32 -19
209 32 -19
210 32 -19
211 32 -19
212 -20 19
213 -20 19
214 -20 19
215 -20 19
216 -45 -11
217 -45 -11
218 -45 -11
219 -45 -11
220 50 -25
221 50 -25
222 50 -25
223 -49 -36
224 -49 -36
225 2 20
226 2 20
227 2 20
228 2 20
229 22 -10
230 22 -10
231 22 -10
232 22 -10
233 -23 46
234 -23 46
235 -23 46
236 -23 46
237 -23 46
238 38 -30
239 38 -30
240 39 -17
241 39 -17
242 39 -17
243 16 33
244 16 33
245 16 33
246 16 33
247 -31 -41
248 -31 -41
249 -31 -41
250 -31 -41
251 -31 -41
252 -31 -41
253 -46 -6
254 -46 -6
255 -46 -6
256 -46 -6
257 42 -1
258 42 -1
259 42 -1
260 42 -1
261 42 -1
262 27 -22
263 27 -22
264 27 -22
265 27 -22
266 27 -22
267 -37 36
268 -37 36
269 -37 36
270 -37 36
271 2 -7
272 2 -7
273 2 -7
274 23 13
275 23 13
276 23 13
277 -26 0
278 -26 0
279 -26 0
280 -10 17
281 -10 17
282 -10 17
283 16 -29
284 16 -29
285 -2 4
286 -2 4
287 -2 4
288 -2 4
289 -11 45
290 -11 45
291 -11 45
292 -11 45
293 -11 45
294 19 -35
295 19 -35
296 -38 40
297 -38 40
298 -38 40
299 -38 40
300 -38 40
301 13 30
302 13 30
303 13 30
304 13 30
305 13 30
306 13 30
307 -20 34
308 -20 34
309 -20 34
310 -20 34
311 -20 34
312 -15 -13
313 -15 -13
314 -15 -13
315 28 49
316 28 49
317 28 49
318 28 49
319 -19 -3
320 -19 -3
321 -19 -3
322 -19 -3
323 -19 -3
324 -41 -4
325 -41 -4
326 -41 -4
327 -41 -4
328 40 -41
329 40 -41
330 40 -41
331 40 -41
332 40 -41
333 19 -10
334 19 -10
335 19 -10
336 19 -10
337 -17 -45
338 -17 -45
339 -17 -45
340 -17 -45
341 -34 39
342 -34 39
343 -34 39
344 -46 3
345 -46 3
346 -44 10
347 -44 10
348 -44 10
349 -44 10
350 -44 10
351 -44 10
352 1 40
353 1 40
354 1 40
355 1 40
356 1 40
357 1 40
358 1 40
359 31 -24
360 31 -24
361 -6 15
362 -6 15
363 -6 15
364 -26 -38
365 -26 -38
366 -13 26
367 -13 26
368 -13 26
369 -13 26
370 -48 -48
371 -48 -48
372 -48 -48
373 -48 -48
374 -48 -48
375 35 -3
376 35 -3
377 35 -3
378 35 -3
379 35 -3
380 35 -3
381 32 -5
382 32 -5
383 32 -5
DEMAND_SECTION
1 0
2 200
3 200
4 50
5 10
6 10
7 10
8 200
9 10
10 10
11 10
12 200
13 100
14 50
15 200
16 200
17 50
18 10
19 200
20 100
21 50
22 200
23 200
24 50
25 10
26 10
27 200
28 100
29 50
30 10
31 200
32 100
33 50
34 10
35 10
36 200
37 100
38 50
39 10
40 200
41 100
42 200
43 100
44 10
45 10
46 10
47 10
48 200
49 100
50 10
51 10
52 200
53 200
54 50
55 200
56 200
57 10
58 10
59 10
60 10
61 200
62 10
63 10
64 10
65 200
66 10
67 10
68 10
69 10
70 100
71 50
72 10
73 10
74 10
75 10
76 200
77 200
78 10
79 200
80 200
81 200
82 50
83 10
84 200
85 100
86 50
87 200
88 10
89 10
90 10
91 10
92 200
93 100
94 50
95 10
96 200
97 200
98 50
99 10
100 10
101 100
102 10
103 10
104 10
105 200
106 200
107 10
108 10
109 10
110 10
111 200
112 10
113 200
114 200
115 10
116 10
117 10
118 200
119 100
120 10
121 200
122 200
123 200
124 200
125 200
126 50
127 10
128 10
129 10
130 10
131 200
132 100
133 50
134 10
135 10
136 200
137 10
138 100
139 50
140 10
141 200
142 100
143 10
144 10
145 200
146 10
147 10
148 10
149 10
150 100
151 10
152 10
153 10
154 200
155 10
156 200
157 200
158 10
159 10
160 200
161 200
162 10
163 200
164 200
165 200
166 50
167 10
168 10
169 10
170 200
171 50
172 10
173 10
174 200
175 10
176 200
177 10
178 100
179 50
180 10
181 10
182 10
183 10
184 200
185 200
186 50
187 10
188 10
189 10
190 100
191 50
192 200
193 50
194 10
195 10
196 100
197 50
198 10
199 200
200 100
201 50
202 10
203 10
204 200
205 10
206 200
207 200
208 100
209 50
210 10
211 10
212 200
213 200
214 50
215 10
216 200
217 50
218 10
219 10
220 100
221 10
222 10
223 200
224 200
225 100
226 10
227 10
228 10
229 200
230 100
231 50
232 10
233 200
234 200
235 10
236 10
237 10
238 100
239 50
240 200
241 100
242 10
243 100
244 10
245 10
246 10
247 100
248 50
249 10
250 10
251 10
252 10
253 200
254 100
255 10
256 10
257 200
258 50
259 10
260 10
261 10
262 200
263 200
264 50
265 10
266 10
267 200
268 50
269 10
270 10
271 100
272 50
273 10
274 200
275 100
276 50
277 200
278 10
279 10
280 200
281 10
282 10
283 200
284 100
285 200
286 50
287 10
288 10
289 200
290 10
291 10
292 10
293 10
294 100
295 50
296 100
297 10
298 10
299 10
300 10
301 200
302 50
303 10
304 10
305 10
306 10
307 100
308 50
309 10
310 10
311 10
312 200
313 100
314 50
315 200
316 100
317 10
318 10
319 200
320 200
321 10
322 10
323 10
324 200
325 100
326 10
327 10
328 200
329 10
330 10
331 10
332 10
333 200
334 200
335 10
336 10
337 200
338 100
339 10
340 10
341 200
342 200
343 10
344 200
345 50
346 200
347 100
348 10
349 10
350 10
351 10
352 200
353 100
354 50
355 10
356 10
357 10
358 10
359 200
360 50
361 100
362 50
363 10
364 200
365 200
366 200
367 200
368 10
369 10
370 200
371 200
372 10
373 10
374 10
375 200
376 50
377 10
378 10
379 10
380 10
381 200
382 100
383 50
DEPOT_SECTION
1
-1
EOF