Normalized Data/p03_25_normalized_splitx10_0.sol
382 -2 3 5 6 1 4 189 190 345 348 347 346 350 349 -9 8 10 39 40 296 295 299 297 298 142 143 141 140 341 342 -28 29 27 26 111 110 -37 36 198 218 217 216 215 65 68 66 67 64 150 152 151 149 -38 35 222 223 250 251 246 248 249 247 364 -53 51 52 204 203 255 252 254 253 -59 58 57 55 54 56 34 32 31 33 30 353 357 354 356 355 352 -75 76 77 74 73 71 72 70 69 122 123 -88 87 86 334 332 335 333 230 229 228 231 -89 90 293 294 196 197 195 328 331 330 327 329 174 173 237 238 359 -92 94 16 17 127 125 128 124 126 129 175 176 317 315 314 316 244 -93 91 15 14 273 274 275 -96 97 99 98 95 201 202 199 120 121 -107 104 109 108 105 106 266 268 267 269 340 192 194 -112 115 116 114 113 155 157 156 137 138 139 -117 177 179 181 178 182 180 166 167 165 168 163 164 161 272 270 -119 118 154 153 18 20 19 338 339 337 336 -133 131 130 132 134 343 344 326 324 323 325 -144 147 100 101 102 103 79 81 82 80 351 -146 145 148 289 292 291 288 290 25 24 21 22 23 83 285 -158 162 49 50 48 47 373 371 372 369 370 -172 362 360 281 280 279 7 214 211 212 213 -193 191 236 234 232 235 233 308 307 309 306 310 84 85 367 286 287 -200 188 185 183 184 187 186 78 363 -205 366 368 365 46 44 42 43 41 45 361 -210 207 209 208 206 220 221 219 240 239 241 382 381 -242 243 245 300 305 302 303 301 304 226 227 225 224 169 171 170 284 -258 256 259 257 260 135 136 375 379 376 377 374 378 380 -263 262 283 282 159 160 271 -265 264 261 62 60 63 61 11 12 13 358 -313 311 312 276 278 277 318 321 322 319 320 0 





OBJ=
3006.667
BEST_KNOWN=
0.000